100 500 200 500 10 100
26 256
14 425
90 321
90 481
37 368
27 261
97 377
33 428
47 213
35 446
82 461
61 286
76 451
76 271
65 499
43 219
70 411
19 496
67 418
74 450
28 262
51 294
22 219
89 334
19 270
47 479
17 233
54 225
69 406
58 213
19 419
68 407
92 375
93 260
75 225
69 275
74 470
88 475
84 339
98 420
53 337
10 389
96 311
59 252
38 409
51 318
97 445
43 355
85 325
63 309
55 425
69 438
41 202
31 281
86 471
33 449
26 298
14 427
42 450
40 323
32 442
70 383
53 363
33 404
92 402
50 339
70 346
45 419
28 387
41 389
47 399
95 465
52 373
39 303
24 267
16 378
12 264
82 292
96 497
46 365
53 458
50 423
58 427
40 350
67 489
43 471
89 274
31 333
90 223
77 467
28 209
67 497
22 302
39 399
15 284
21 447
23 465
88 294
63 358
65 455
